CMD:
./solvers/bin/cadical --plain --no-reduce -t 1600 ./data/cnfs//6s404rb4/6s404rb4.37.cnf

c --- [ banner ] -------------------------------------------------------------
c 
c CaDiCaL SAT Solver
c Copyright (c) 2016-2024
c A. Biere, M. Fleury, N. Froleyks, K. Fazekas, F. Pollitt, T. Faller
c JKU Linz, University of Freiburg, TU Wien
c 
c Version 2.1.3 5296d3d2a9bf48c154ab2acb5e44625776d821bf
c g++ (Gentoo 12.3.1_p20230526 p2) 12.3.1 20230526 -Wall -Wextra -O3 -DNDEBUG
c Sat Aug 9 07:26:21 PDT 2025 Linux cedar2.int.cedar.computecanada.ca 5.14.0-362.24.2.el9_3.x86_64 x86_64
c 
c --- [ limit ] --------------------------------------------------------------
c 
c setting time limit to 1600 seconds real time (due to '-t 1600')
c 
c --- [ parsing input ] ------------------------------------------------------
c 
c reading DIMACS file from './data/cnfs//6s404rb4/6s404rb4.37.cnf'
c opening file to read './data/cnfs//6s404rb4/6s404rb4.37.cnf'
c found 'p cnf 4803268 14366847' header
c parsed 14366847 clauses in 2.42 seconds process time
c 
c --- [ options ] ------------------------------------------------------------
c 
c   --compact=false                (different from default 'true')
c   --decompose=false              (different from default 'true')
c   --deduplicate=false            (different from default 'true')
c   --elim=false                   (different from default 'true')
c   --probe=false                  (different from default 'true')
c   --reduce=false                 (different from default 'true')
c   --subsume=false                (different from default 'true')
c   --ternary=false                (different from default 'true')
c   --transred=false               (different from default 'true')
c   --vivify=false                 (different from default 'true')
c 
c --- [ solving ] ------------------------------------------------------------
c 
c time measured in process time since initialization
c 
c  seconds    reductions  redundant   irredundant
c          MB     restarts       trail          variables
c            level   conflicts       glue             remaining
c 
c *  2.42 2116  0 0   0    0    0  0% 0 13526625 4243056 88%
c {  3.03 2169  0 0   0    0    0  0% 0 13526625 4243056 88%
c i  3.56 2169 1208 0  29  379  358 14% 2 13526625 4243051 88%
c i  4.94 2169 869 0 102  704  647 14% 3 13526625 4243050 88%
c }  6.79 2169 877 0 165 1000  901 15% 3 13526625 4243050 88%
c [  6.79 2169  0 0 165 1000  901  0% 0 13526625 4243050 88%
c i  6.91 2169 546 0 165 1001  901 17% 0 13526625 4243049 88%
c O  6.93 2169 423 0 165 1002  901 16% 0 13526625 4243048 88%
c i  6.93 2169 423 0 165 1002  901 16% 0 13526625 4243045 88%
c i  6.94 2169 383 0 165 1003  901 16% 0 13526625 4243043 88%
c i  8.64 2169 5483 0 165 1811 1624 91% 5 13526625 4243016 88%
c ] 10.67 2172 3134 0 166 3000 2666 58% 4 13526625 4242966 88%
c { 10.67 2172 877 0 166 3000 2666 15% 3 13526625 4242966 88%
c F 10.70 2172 875 0 168 3006 2669 15% 3 13526625 4242966 88%
c i 10.75 2172 862 0 168 3022 2683 15% 3 13526625 4242965 88%
c i 12.31 2175 664 0 204 3553 3186 16% 3 13526625 4242964 88%
c i 14.78 2177 642 0 252 3809 3418 17% 3 13526625 4242924 88%
c i 14.79 2177 640 0 252 3817 3425 17% 3 13526625 4242871 88%
c i 14.79 2177 640 0 252 3818 3425 17% 3 13526625 4242863 88%
c i 14.79 2177 638 0 252 3823 3429 17% 3 13526625 4242817 88%
c 
c  seconds     reductions  redundant   irredundant
c          MB      restarts       trail          variables
c             level   conflicts       glue             remaining
c 
c i 14.80 2177 637 0 252 3826 3431 17% 3 13526625 4242809 88%
c i 14.80 2177 637 0 252 3827 3431 17% 3 13526625 4242703 88%
c i 14.80 2177 636 0 252 3830 3432 17% 3 13526625 4242693 88%
c i 14.80 2177 635 0 252 3832 3433 17% 3 13526625 4242683 88%
c i 14.81 2177 635 0 252 3833 3433 17% 3 13526625 4242681 88%
c i 14.81 2177 634 0 252 3834 3433 17% 3 13526625 4242673 88%
c i 14.85 2177 627 0 252 3858 3451 17% 3 13526625 4242286 88%
c i 15.04 2177 603 0 257 3967 3537 17% 3 13526625 4242285 88%
c i 15.11 2177 600 0 257 3982 3547 17% 3 13526625 4242172 88%
c i 15.86 2180 566 0 273 4164 3711 18% 3 13526625 4242123 88%
c i 16.21 2180 562 0 281 4310 3834 19% 3 13526625 4242121 88%
c i 16.29 2180 562 0 281 4323 3845 19% 3 13526625 4241029 88%
c i 16.31 2180 561 0 283 4329 3850 19% 3 13526625 4241028 88%
c i 17.09 2181 538 0 303 4527 4033 19% 3 13526625 4240402 88%
c i 17.12 2181 537 0 304 4537 4042 19% 3 13526625 4240176 88%
c i 17.12 2181 537 0 304 4539 4043 19% 3 13526625 4240017 88%
c i 17.23 2181 523 0 307 4619 4108 19% 3 13526625 4239688 88%
c i 20.81 2184 487 0 347 5126 4554 20% 3 13526625 4239687 88%
c i 23.45 2186 471 0 367 5465 4871 21% 3 13526625 4239685 88%
c # 27.87 2187 434 0 451 6007 5375 21% 3 13526625 4239685 88%
c 
c  seconds     reductions  redundant   irredundant
c          MB      restarts       trail          variables
c             level   conflicts       glue             remaining
c 
c i 31.17 2188 434 0 476 6227 5574 22% 3 13526625 4235482 88%
c i 33.66 2191 430 0 513 6635 5932 23% 3 13526625 4233814 88%
c i 33.66 2191 430 0 514 6636 5932 23% 3 13526625 4233812 88%
c } 34.61 2192 415 0 539 7002 6265 22% 3 13526625 4233812 88%
... skipped 67 lines ...
c  seconds      reductions       redundant    irredundant
c           MB       restarts            trail          variables
c              level      conflicts          glue             remaining
c 
c i 706.16 2618 281 0 10625 113316 102387 24% 5 12605965 4230421 88%
c i 743.41 2618 282 0 11232 117650 106319 24% 5 12605965 4230419 88%
c W 778.34 2620 288 0 11603 120039 108484 24% 5 12605565 4230419 88%
c } 827.47 2620 288 0 12405 127004 114771 24% 5 12605565 4230419 88%
c [ 827.47 2620 700 0 12405 127004 114771 29% 9 12605565 4230419 88%
c B 832.06 2620 794 0 12409 136040 122672 32% 9 12605565 4230419 88%
c i 845.46 2620 857 0 12413 140730 127056 34% 10 12605565 4230414 88%
c W 858.75 2624 811 0 12414 153043 138142 33% 10 12605555 4230414 88%
c I 880.49 2624 698 0 12416 171045 154643 30% 11 12605555 4230414 88%
c B 910.07 2624 829 0 12428 190047 171845 33% 11 12605555 4230414 88%
c W 952.21 2624 735 0 12435 210048 189797 31% 12 12605555 4230414 88%
c O 984.87 2624 686 0 12445 231049 209029 31% 13 12605555 4230414 88%
c i 993.95 2624 653 0 12445 235369 213075 30% 13 12605555 4230412 88%
c i 994.08 2624 652 0 12445 235453 213155 30% 13 12605555 4230411 88%
c i 994.24 2624 651 0 12445 235576 213273 30% 13 12605555 4230410 88%
c B 1007.93 2624 667 0 12446 253059 229621 33% 13 12605555 4230410 88%
c ] 1012.64 2624 663 0 12447 255005 231413 32% 13 12605555 4230410 88%
c { 1012.64 2624 288 0 12447 255005 231413 24% 5 12605555 4230410 88%
c i 1036.31 2624 282 0 13179 260249 236189 23% 5 12605555 4230409 88%
c i 1080.24 2624 273 0 13910 265838 241291 23% 5 12605555 4230408 88%
c 
c   seconds      reductions       redundant    irredundant
c            MB       restarts            trail          variables
c               level      conflicts          glue             remaining
c 
c i 1133.76 2624 267 0 14899 273473 248168 23% 5 12605555 4230406 88%
c i 1133.76 2624 267 0 14900 273474 248168 23% 5 12605555 4230404 88%
c i 1147.35 2624 264 0 15113 275199 249736 23% 5 12605555 4230403 88%
c F 1158.10 2624 264 0 15269 276063 250531 23% 5 12605555 4230403 88%
c i 1212.73 2624 253 0 16451 289411 262331 22% 5 12605555 4230402 88%
c i 1236.03 2624 249 0 17152 293456 265939 22% 5 12605555 4230401 88%
c B 1298.97 2624 246 0 18050 300065 271865 22% 5 12605555 4230401 88%
c i 1336.54 2624 240 0 18829 306058 277232 22% 5 12605555 4230398 88%
c i 1336.54 2624 240 0 18829 306059 277232 22% 5 12605555 4230393 88%
c i 1336.55 2624 240 0 18829 306061 277233 22% 5 12605555 4230382 88%
c i 1336.62 2624 240 0 18831 306130 277290 22% 5 12605555 4230381 88%
c i 1418.79 2624 230 0 20878 318703 288538 21% 5 12605555 4230378 88%
c i 1422.17 2624 227 0 20937 320021 289711 21% 5 12605555 4230377 88%
c W 1469.30 2644 226 0 21735 325066 294282 21% 5 12605437 4230377 88%
c i 1583.97 2644 219 0 24136 342838 310143 21% 6 12605437 4230376 88%
c } 1594.79 2644 219 0 24298 343873 311063 21% 6 12605437 4230376 88%
c ? 1594.79 2644 219 0 24298 343873 311063 21% 6 12605437 4230376 88%
c 
c --- [ result ] -------------------------------------------------------------
c 
c UNKNOWN
c 
c --- [ run-time profiling ] -------------------------------------------------
c 
c process time taken by individual solving procedures
c (percentage relative to process time for solving)
c 
c      1592.36  100.00% search
c      1337.14   83.97% unstable
c       237.79   14.93% stable
c        16.83    1.06% walk
c         2.42    0.15% parse
c         0.60    0.04% lucky
c         0.00    0.00% simplify
c   =================================
c      1592.36   99.85% solve
c 
c last line shows process time for solving
c (percentage relative to total process time)
c 
c --- [ statistics ] ---------------------------------------------------------
c 
c chronological:            167913        48.83 %  of conflicts
c conflicts:                343873       215.95    per second
c decisions:               7076271      4443.89    per second
c fixed:                    572819        11.93 %  of all variables
c learned:                  325695        94.71 %  per conflict
c learned_lits:           10056816       100.00 %  learned literals
c minimized:                     0         0.00 %  learned literals
c shrunken:                1098196        10.92 %  learned literals
c minishrunken:            1713792        17.04 %  learned literals
c otfs:                       3829         1.11 %  of conflict
c propagations:        15674355611         9.84 M  per second
c rephased:                     25     13754.92    interval
c restarts:                  24298        14.15    interval
c stabilizing:                   4        49.41 %  of conflicts
c subsumed:                  14550         0.11 %  of all clauses
c strengthened:               3707         0.03 %  of all clauses
c walked:                        7     49124.71    interval
c 
c seconds are measured in process time for solving
c 
c --- [ resources ] ----------------------------------------------------------
c 
c total process time since initialization:      1594.79    seconds
c total real time since initialization:         1600.02    seconds
c maximum resident set size of process:         3071.90    MB
c 
c --- [ shutting down ] ------------------------------------------------------
c 
c exit 0
